[[62, 63, 61, 60, 49, 58, 59, 67, 68, 77, 78, 69, 79, 70, 80, 71, 72, 81], [89, 90, 99, 98, 97, 88, 87, 96, 95, 86, 85, 76, 84, 94, 93], [92, 91, 83, 82, 73, 75, 74, 66, 65, 64], [56, 57, 55, 47, 46, 48, 39, 40, 38, 37, 29, 28, 30], [31, 21, 22, 19, 20, 13, 11, 10, 2, 12, 3, 4, 14, 5], [6, 7, 8, 9, 18, 17, 16, 15, 23, 24, 25, 26], [27, 35, 36, 44, 34, 43, 33, 42, 32, 41, 50, 51, 52, 53, 45, 54]]